CMD:
./solvers/bin/cadical --plain --no-reduce -t 1600 ./data/cnfs//visarbiter/visarbiter.89.cnf

c --- [ banner ] -------------------------------------------------------------
c 
c CaDiCaL SAT Solver
c Copyright (c) 2016-2024
c A. Biere, M. Fleury, N. Froleyks, K. Fazekas, F. Pollitt, T. Faller
c JKU Linz, University of Freiburg, TU Wien
c 
c Version 2.1.3 5296d3d2a9bf48c154ab2acb5e44625776d821bf
c g++ (Gentoo 12.3.1_p20230526 p2) 12.3.1 20230526 -Wall -Wextra -O3 -DNDEBUG
c Sat Aug 9 07:26:21 PDT 2025 Linux cedar2.int.cedar.computecanada.ca 5.14.0-362.24.2.el9_3.x86_64 x86_64
c 
c --- [ limit ] --------------------------------------------------------------
c 
c setting time limit to 1600 seconds real time (due to '-t 1600')
c 
c --- [ parsing input ] ------------------------------------------------------
c 
c reading DIMACS file from './data/cnfs//visarbiter/visarbiter.89.cnf'
c opening file to read './data/cnfs//visarbiter/visarbiter.89.cnf'
c found 'p cnf 39893 118553' header
c parsed 118553 clauses in 0.02 seconds process time
c 
c --- [ options ] ------------------------------------------------------------
c 
c   --compact=false                (different from default 'true')
c   --decompose=false              (different from default 'true')
c   --deduplicate=false            (different from default 'true')
c   --elim=false                   (different from default 'true')
c   --probe=false                  (different from default 'true')
c   --reduce=false                 (different from default 'true')
c   --subsume=false                (different from default 'true')
c   --ternary=false                (different from default 'true')
c   --transred=false               (different from default 'true')
c   --vivify=false                 (different from default 'true')
c 
c --- [ solving ] ------------------------------------------------------------
c 
c time measured in process time since initialization
c 
c  seconds  reductions  redundant  irredundant
c         MB    restarts       trail       variables
c          level   conflicts       glue         remaining
c 
c *  0.02 22  0 0   0    0    0  0% 0 116891 38484 96%
c {  0.02 22  0 0   0    0    0  0% 0 116891 38484 96%
c }  0.04 22 122 0  20 1000  882 23% 2 116891 38484 96%
c [  0.04 22  0 0  20 1000  882  0% 0 116891 38484 96%
c O  0.04 22 145 0  20 1002  884 32% 2 116891 38484 96%
c ]  0.13 23 274 0  21 3000 2757 72% 8 116891 38484 96%
c {  0.13 23 122 0  21 3000 2757 23% 2 116891 38484 96%
c F  0.13 23 123 0  21 3003 2760 24% 2 116891 38484 96%
c #  0.23 24 91 0 489 6004 5515 23% 3 116891 38484 96%
c }  0.28 24 82 0 650 7000 6451 22% 3 116891 38484 96%
c [  0.28 24 274 0 650 7000 6451 72% 8 116891 38484 96%
c i  0.29 24 249 0 651 7275 6708 65% 7 116891 38483 96%
c I  0.42 25 176 0 652 10006 9253 52% 7 116891 38483 96%
c ]  0.65 26 161 0 655 15001 13822 50% 6 116891 38483 96%
c {  0.65 26 82 0 655 15001 13822 22% 3 116891 38483 96%
c B  0.66 26 82 0 656 15027 13834 22% 3 116891 38483 96%
c i  0.66 26 83 0 657 15058 13862 22% 3 116891 38482 96%
c i  0.66 26 83 0 657 15060 13863 22% 3 116891 38481 96%
c i  0.67 26 89 0 684 15454 14236 23% 3 116891 38480 96%
c i  0.69 26 88 0 721 15709 14470 23% 3 116891 38479 96%
c 
c  seconds  reductions    redundant  irredundant
c         MB    restarts         trail       variables
c          level    conflicts        glue         remaining
c 
c i  0.69 26 88 0 723 15715 14475 23% 3 116891 38478 96%
c W  1.08 27 75 0 1450 21028 19449 26% 3 114699 38478 96%
c i  1.41 27 66 0 1981 24540 22689 25% 3 114699 38467 96%
c i  1.42 27 66 0 1987 24767 22900 25% 3 114699 38459 96%
c i  1.65 27 63 0 2288 26791 24764 25% 4 114699 38455 96%
c i  1.65 27 63 0 2288 26833 24800 25% 4 114699 38451 96%
c F  1.75 28 61 0 2419 28029 25898 25% 4 114699 38451 96%
c i  1.79 28 60 0 2485 28401 26245 24% 4 114699 38450 96%
c i  1.81 28 60 0 2508 28584 26415 24% 4 114699 38449 96%
c }  2.01 28 57 0 2744 31003 28665 24% 4 114699 38449 96%
c [  2.01 28 161 0 2744 31003 28665 50% 6 114699 38449 96%
c i  2.12 29 146 0 2744 32580 30151 49% 6 114699 38448 96%
c i  2.24 29 133 0 2745 34189 31653 47% 6 114699 38447 96%
c B  2.39 29 122 0 2747 36030 33378 47% 6 114699 38447 96%
c i  2.53 29 120 0 2747 36958 34194 46% 7 114699 38446 96%
c W  3.27 38 98 0 2751 45032 41706 43% 7 114584 38446 96%
c i  3.31 38 97 0 2751 45532 42145 42% 7 114584 38445 96%
c i  3.37 38 94 0 2752 46470 42991 41% 7 114584 38444 96%
c i  3.48 38 89 0 2752 48532 44842 40% 7 114584 38443 96%
c i  3.53 38 89 0 2752 49573 45771 40% 7 114584 38442 96%
c 
c  seconds  reductions     redundant  irredundant
c         MB    restarts          trail       variables
c          level     conflicts        glue         remaining
c 
c i  3.86 38 81 0 2752 53872 49510 38% 7 114584 38441 96%
c O  3.97 38 80 0 2753 55034 50630 38% 7 114584 38441 96%
c i  4.32 38 73 0 2755 58749 53900 35% 7 114584 38440 96%
c ]  4.70 38 67 0 2758 63003 57580 35% 7 114584 38440 96%
c {  4.70 38 57 0 2758 63003 57580 24% 4 114584 38440 96%
c i  4.81 39 56 0 2917 63654 58173 24% 4 114584 38439 96%
c i  4.97 39 54 0 3136 64726 59141 24% 4 114584 38438 96%
c B  5.16 39 52 0 3400 66036 60285 23% 4 114584 38438 96%
c i  5.39 39 50 0 3708 67410 61506 23% 4 114584 38437 96%
c i  6.80 39 41 0 5142 75859 69015 21% 4 114584 38430 96%
c i  6.96 39 40 0 5297 76830 69882 21% 4 114584 38429 96%
c i  7.04 39 40 0 5377 77476 70466 21% 4 114584 38428 96%
c W  7.18 41 40 0 5490 78040 70902 21% 4 114524 38428 96%
c i  7.47 41 38 0 5837 80257 72856 21% 5 114524 38427 96%
c i  7.63 41 37 0 5973 81714 74160 21% 5 114524 38387 96%
c i  7.63 41 37 0 5973 81715 74160 21% 5 114524 38366 96%
c i  7.70 41 37 0 6011 82394 74778 21% 5 114524 38361 96%
c i  7.75 41 37 0 6048 82950 75222 21% 5 114524 38354 96%
c i  7.77 41 37 0 6064 83049 75302 21% 5 114524 38338 96%
c i  7.77 41 37 0 6064 83053 75304 21% 5 114524 38307 96%
c 
c  seconds  reductions     redundant  irredundant
c         MB    restarts          trail       variables
c          level     conflicts        glue         remaining
c 
c }  7.77 41 37 0 6064 83058 75306 21% 5 114524 33313 84%
c 0  7.77 41 37 0 6064 83058 75306 21% 5 114524 33313 84%
c 
c --- [ result ] -------------------------------------------------------------
c 
s UNSATISFIABLE
c 
c --- [ run-time profiling ] -------------------------------------------------
c 
c process time taken by individual solving procedures
c (percentage relative to process time for solving)
c 
c         7.75  100.00% search
c         4.53   58.44% unstable
c         3.10   40.04% stable
c         0.12    1.51% walk
c         0.02    0.23% parse
c         0.00    0.01% lucky
c         0.00    0.00% simplify
c   =================================
c         7.75   99.76% solve
c 
c last line shows process time for solving
c (percentage relative to total process time)
c 
c --- [ statistics ] ---------------------------------------------------------
c 
c chronological:             29551        35.58 %  of conflicts
c conflicts:                 83058     10716.33    per second
c decisions:                260745     33641.90    per second
c fixed:                      6580        16.49 %  of all variables
c learned:                   80379        96.77 %  per conflict
c learned_lits:            1848451       100.00 %  learned literals
c minimized:                     0         0.00 %  learned literals
c shrunken:                 222011        12.01 %  learned literals
c minishrunken:             338718        18.32 %  learned literals
c otfs:                        768         0.92 %  of conflict
c propagations:           83025010        10.71 M  per second
c rephased:                     12      6921.50    interval
c restarts:                   6064        13.70    interval
c stabilizing:                   3        50.56 %  of conflicts
c subsumed:                   4995         2.53 %  of all clauses
c strengthened:                748         0.38 %  of all clauses
c walked:                        3     27686.00    interval
c 
c seconds are measured in process time for solving
c 
c --- [ resources ] ----------------------------------------------------------
c 
c total process time since initialization:         7.77    seconds
c total real time since initialization:            7.80    seconds
c maximum resident set size of process:           46.86    MB
c 
c --- [ shutting down ] ------------------------------------------------------
c 
c exit 20
